s td 15 76 90
b 1 1 2 3 4 5 6 7 8 9 10 11 13 14 15 17 18 19 20 21 22 23 24 25 26 27 28 29 30 31 32 33 35 36 37 39 41 42 44 45 47 48 49 50 51 53 54 55 56 57 58 59 61 62 63 64 65 67 68 69 71 72 74 75 76 77 78 80 81 82 83 84 85 87 88 89 90
b 2 1 3 4 5 6 7 8 9 10 11 12 13 14 15 17 18 19 20 21 22 23 24 25 26 27 28 29 30 31 32 33 35 36 37 39 41 42 44 45 47 48 49 50 51 53 54 55 56 57 58 59 61 62 63 64 65 67 68 69 71 72 74 75 76 77 78 80 81 82 83 84 85 87 88 89 90
b 3 1 3 4 5 6 7 8 9 10 11 12 13 14 15 18 19 21 22 23 24 25 26 27 28 29 30 31 32 33 35 36 37 39 41 42 44 45 47 48 49 50 51 53 54 55 56 57 58 59 61 62 63 64 65 67 68 69 71 72 74 75 76 77 78 79 80 81 82 83 84 85 87 88 89 90
b 4 1 3 4 5 6 7 8 9 10 11 12 13 14 15 16 18 19 21 22 23 24 25 26 27 28 29 30 31 32 33 35 36 37 39 41 42 44 45 48 49 50 51 53 54 55 56 57 58 59 61 62 63 64 65 67 68 69 71 72 74 75 76 77 78 79 80 81 82 83 84 85 87 88 89 90
b 5 1 3 4 5 6 7 8 9 10 11 12 13 14 15 16 18 19 21 22 23 24 25 26 27 28 29 30 31 32 33 35 36 37 39 41 42 44 45 48 49 50 51 53 54 55 56 57 59 61 62 63 64 65 67 68 69 70 71 72 74 75 76 77 78 79 80 81 82 83 84 85 87 88 90
b 6 1 3 4 5 6 8 9 10 11 12 13 14 15 16 18 19 21 22 23 24 25 26 27 28 29 30 31 32 33 34 35 36 37 39 41 42 44 45 48 49 50 51 53 54 55 56 57 59 61 62 63 64 67 68 69 70 71 72 74 75 76 77 78 79 80 81 82 83 84 87 88 90
b 7 1 3 5 6 8 10 11 13 14 15 16 18 19 21 22 25 26 27 28 29 30 31 32 33 34 35 36 37 39 42 43 44 45 49 50 53 54 55 57 59 62 63 64 67 69 71 72 75 76 77 78 79 80 81 83 84 87 88 90
b 8 6 8 10 11 13 14 16 22 27 28 31 33 34 35 37 39 40 42 43 44 49 50 53 54 55 59 63 64 67 69 72 75 76 78 80 81 83 84 87 88 90
b 9 1 2 4 5 6 7 8 9 11 13 14 15 17 18 19 20 21 22 23 24 25 26 27 28 29 30 31 32 33 35 36 37 39 41 42 44 45 46 47 48 49 50 51 53 54 55 56 57 58 59 61 62 63 64 65 67 68 69 71 72 74 75 76 77 78 80 81 82 83 84 85 87 88 89 90
b 10 1 2 4 5 6 7 8 9 11 13 14 15 17 18 19 20 21 22 23 24 26 27 28 29 30 31 32 33 35 36 37 38 39 41 42 44 45 46 47 48 49 50 53 54 55 56 57 58 59 61 62 63 64 65 67 68 69 72 74 75 76 77 78 80 81 82 83 84 85 87 88 89 90
b 11 1 2 4 5 6 7 8 9 11 13 14 15 17 18 19 20 21 22 23 24 26 27 28 29 30 31 32 33 35 36 37 38 39 41 42 44 45 46 47 48 49 50 53 54 55 56 57 58 59 60 61 62 63 65 67 68 69 72 74 75 76 77 78 80 81 82 83 84 85 88 89 90
b 12 1 2 4 5 6 7 8 9 11 13 14 15 17 18 19 20 21 22 23 24 26 27 28 30 31 32 33 35 36 37 38 39 41 42 44 45 46 47 48 49 50 53 54 55 56 57 58 59 60 61 62 63 65 67 68 69 72 73 74 75 76 77 78 80 81 83 84 85 88 89 90
b 13 1 2 4 5 6 7 8 9 11 13 14 15 17 18 19 20 21 22 23 26 27 28 30 31 32 33 35 36 37 38 39 41 42 44 46 47 48 49 50 52 53 54 56 57 59 60 61 62 63 65 68 69 72 73 74 75 76 77 78 80 81 83 84 85 88 89 90
b 14 1 2 5 6 7 8 9 11 13 14 15 18 20 22 23 26 27 28 30 31 32 33 35 36 37 38 39 41 42 46 47 48 49 50 52 53 54 56 57 59 60 61 62 63 65 66 68 69 73 74 77 78 80 81 83 84 85 88 89 90
b 15 1 2 6 7 8 11 13 14 15 20 22 23 30 31 33 35 36 38 39 42 46 47 49 50 57 59 60 61 66 69 73 77 78 83 84 85 86 88 90
1 2
1 9
2 3
3 4
4 5
5 6
6 7
7 8
9 10
10 11
11 12
12 13
13 14
14 15
